DATASET = "thpack3";
INSTANCE = "057";

WIDTH = 233;
HEIGHT = 220;
LENGTH = 587;

NO_OF_SHAPES = 8;
size = [|
  85,73,40 |
  73,62,54 |
  90,63,41 |
  75,61,24 |
  57,53,44 |
  93,70,45 |
  73,36,33 |
  95,80,75 |
|];

verticality = [|
  0,1,1 |
  1,1,1 |
  0,1,1 |
  0,0,1 |
  1,1,1 |
  0,1,1 |
  0,1,1 |
  1,1,1 |
|];

box_count = [
  11,
  12,
  18,
  15,
  11,
  17,
  15,
  19,
];
